#######################################
### Exact MIP solver for the HHCRSP ###
#######################################
-- Instance file: new-instances/HHCRSP_50_10_86_0.4_R_RC.txt
-- Max threads: 4
-- Time limit: 999999 seconds
-- Use initial solution: No
Trivial flow violations prevented generating 5994 variables.
Model exported.
Version identifier: 20.1.0.0 | 2020-11-10 | 9bedb6d68
CPXPARAM_Threads                                 4
CPXPARAM_TimeLimit                               999999
Parallel mode: deterministic, using up to 4 threads for concurrent optimization:
 * Starting dual Simplex on 1 thread...
 * Starting Barrier on 3 threads...
Tried aggregator 1 time.
LP Presolve eliminated 1422 rows and 363 columns.
Reduced LP has 7308 rows, 7114 columns, and 58163 nonzeros.
Presolve time = 0.03 sec. (17.42 ticks)
Symmetry aggregator did 5158 additional substitutions.
Initializing dual steep norms . . .

Iteration log . . .
Iteration:     1   Dual objective     =             1.333333
Iteration:   216   Dual objective     =           105.672947

Dual crossover.
  Dual:  Fixing 67 variables.
       66 DMoves:  Infeasibility  1.92624000e-14  Objective  1.05675713e+02
        0 DMoves:  Infeasibility  8.49323663e-15  Objective  1.05675713e+02
  Dual:  Pushed 6, exchanged 61.
  Primal:  Fixing 22 variables.
       21 PMoves:  Infeasibility  0.00000000e+00  Objective  1.05675713e+02
        0 PMoves:  Infeasibility  0.00000000e+00  Objective  1.05675713e+02
  Primal:  Pushed 5, exchanged 17.

Dual simplex solved model.


Solution status from MIP model:
-- Processing time: 0.07 sec.
-- Memory used: 72.8604 MB
-- Best bound: inf
-- Obj value: 105.676
-- Gap: inf%
-- Total distance: 317.027
-- Total tardiness: 0
-- Largest tardiness: 0
